NAME          
ROWS
 N  OBJ
 L  c1
 L  c2
 L  c3
COLUMNS
    MARKER    'MARKER'                 'INTORG'
    x[1]      c1        470
    x[1]      c2        54
    x[1]      c3        231
    x[1]      OBJ       -241
    x[2]      c1        874
    x[2]      c2        974
    x[2]      c3        821
    x[2]      OBJ       -846
    x[3]      c1        968
    x[3]      c2        379
    x[3]      c3        586
    x[3]      OBJ       -251
    x[4]      c1        288
    x[4]      c2        779
    x[4]      c3        917
    x[4]      OBJ       -821
    x[5]      c1        687
    x[5]      c2        657
    x[5]      c3        623
    x[5]      OBJ       -410
    x[6]      c1        560
    x[6]      c2        469
    x[6]      c3        3
    x[6]      OBJ       -93
    x[7]      c1        252
    x[7]      c2        262
    x[7]      c3        953
    x[7]      OBJ       -326
    x[8]      c1        198
    x[8]      c2        125
    x[8]      c3        399
    x[8]      OBJ       -878
    x[9]      c1        681
    x[9]      c2        91
    x[9]      c3        13
    x[9]      OBJ       -560
    x[10]     c1        617
    x[10]     c2        331
    x[10]     c3        769
    x[10]     OBJ       -414
RHS
    rhs       c1        2798
    rhs       c2        2060
    rhs       c3        2658
RANGES
BOUNDS
 BV bounds    x[1]
 BV bounds    x[2]
 BV bounds    x[3]
 BV bounds    x[4]
 BV bounds    x[5]
 BV bounds    x[6]
 BV bounds    x[7]
 BV bounds    x[8]
 BV bounds    x[9]
 BV bounds    x[10]
ENDATA
